c FILE: i160-132

c SOURCE: From steinlib

c DESCRIPTION: Steinlib instance with 160 nodes and 320 edges.

p edge 160 320
e 1 10
e 1 33
e 1 60
e 1 79
e 1 84
e 1 121
e 1 141
e 1 150
e 1 158
e 2 17
e 2 21
e 2 77
e 2 80
e 2 86
e 2 101
e 2 128
e 3 4
e 3 6
e 3 78
e 3 140
e 3 155
e 4 17
e 4 38
e 4 90
e 4 153
e 5 35
e 5 55
e 6 47
e 6 78
e 7 45
e 7 54
e 7 55
e 8 33
e 8 140
e 9 24
e 9 69
e 9 110
e 9 124
e 10 20
e 10 21
e 10 36
e 10 55
e 10 134
e 10 149
e 11 126
e 11 151
e 12 20
e 12 60
e 13 68
e 13 106
e 13 157
e 14 41
e 14 77
e 14 105
e 14 115
e 15 52
e 15 102
e 15 129
e 15 136
e 15 143
e 16 32
e 16 57
e 16 73
e 16 82
e 16 84
e 16 89
e 17 32
e 17 80
e 17 95
e 17 120
e 18 156
e 19 37
e 19 96
e 19 144
e 20 107
e 20 114
e 20 117
e 20 120
e 20 122
e 21 112
e 21 117
e 22 66
e 22 74
e 22 141
e 23 24
e 23 124
e 24 43
e 24 61
e 24 83
e 24 101
e 25 85
e 25 103
e 25 117
e 25 129
e 25 160
e 26 72
e 26 118
e 26 127
e 26 148
e 27 32
e 27 58
e 27 128
e 27 153
e 28 68
e 28 79
e 29 69
e 30 86
e 30 115
e 30 155
e 31 33
e 31 78
e 31 88
e 31 96
e 31 138
e 31 149
e 31 156
e 32 34
e 32 42
e 32 80
e 33 34
e 33 51
e 33 81
e 33 96
e 33 106
e 33 133
e 33 137
e 33 143
e 33 157
e 34 36
e 34 43
e 34 112
e 34 128
e 34 133
e 34 150
e 35 103
e 35 119
e 36 77
e 36 148
e 37 92
e 37 122
e 38 55
e 38 71
e 38 115
e 39 55
e 39 69
e 39 83
e 40 80
e 40 111
e 40 157
e 41 133
e 41 154
e 42 55
e 42 75
e 42 94
e 42 100
e 42 103
e 42 105
e 42 114
e 42 150
e 43 49
e 43 92
e 43 95
e 44 115
e 45 60
e 45 88
e 45 92
e 45 133
e 46 54
e 46 71
e 46 119
e 46 148
e 47 98
e 47 122
e 47 156
e 47 157
e 48 116
e 48 125
e 48 131
e 49 76
e 49 90
e 49 154
e 50 80
e 50 133
e 50 139
e 50 152
e 51 82
e 51 127
e 52 74
e 52 87
e 52 130
e 52 160
e 53 128
e 54 113
e 54 120
e 54 129
e 54 133
e 55 81
e 55 119
e 55 132
e 56 137
e 56 156
e 57 98
e 57 130
e 57 148
e 57 151
e 58 137
e 59 60
e 59 76
e 59 97
e 59 98
e 60 90
e 61 72
e 61 97
e 61 131
e 62 70
e 62 111
e 62 120
e 63 87
e 63 128
e 64 66
e 64 131
e 64 140
e 64 141
e 64 160
e 65 120
e 65 121
e 65 133
e 66 91
e 66 122
e 66 125
e 66 153
e 67 138
e 68 144
e 70 120
e 71 97
e 71 139
e 71 143
e 71 154
e 73 145
e 75 128
e 75 131
e 76 100
e 78 155
e 79 111
e 79 120
e 80 81
e 80 88
e 80 120
e 80 140
e 80 156
e 81 111
e 82 101
e 83 137
e 83 150
e 84 96
e 84 128
e 84 147
e 84 151
e 85 92
e 85 110
e 85 158
e 86 116
e 86 135
e 88 108
e 88 109
e 89 104
e 90 94
e 90 98
e 90 102
e 93 120
e 94 152
e 94 153
e 95 159
e 96 139
e 97 99
e 98 141
e 99 111
e 99 112
e 99 129
e 100 101
e 100 156
e 101 106
e 101 109
e 101 157
e 103 111
e 103 115
e 105 107
e 105 140
e 109 150
e 110 136
e 110 141
e 111 153
e 111 156
e 112 123
e 113 158
e 114 160
e 115 122
e 118 120
e 119 157
e 120 139
e 123 135
e 123 142
e 123 154
e 126 133
e 128 142
e 128 159
e 130 142
e 131 150
e 131 158
e 134 151
e 136 150
e 138 142
e 140 151
e 140 158
e 141 142
e 141 145
e 142 159
e 144 159
e 146 148
e 147 148
